15
3 0 7
3 2 3
4 1 3
4 3 6
5 0 1
5 2 4
5 3 1
5 4 2
6 1 5
6 2 2
6 4 7
6 5 4
7 1 3
7 2 3
8 0 6
8 1 3
8 2 2
8 3 1
8 5 3
8 7 2
9 2 6
9 5 1
9 6 2
9 7 3
10 4 5
10 5 5
10 6 3
10 7 1
10 8 7
11 0 1
11 3 2
11 5 6
11 6 1
11 7 6
11 9 4
11 10 1
12 0 5
12 2 3
12 4 6
12 7 4
12 11 2
13 0 5
13 2 2
13 6 5
13 7 2
13 8 3
13 9 7
13 10 3
13 12 4
14 1 6
14 8 3
14 9 5
14 10 6
14 11 4
14 12 1
